p cnf 39 117
31 32 33 0
34 35 36 37 0
-1 -8 0
-1 -18 0
-1 -21 0
-1 -25 0
-8 -18 0
-8 -21 0
-8 -25 0
-18 -21 0
-18 -25 0
-21 -25 0
-4 -9 0
-4 -13 0
-4 -19 0
-4 -26 0
-4 -31 0
-4 -34 0
-9 -13 0
-9 -19 0
-9 -26 0
-9 -31 0
-9 -34 0
-13 -19 0
-13 -26 0
-13 -31 0
-13 -34 0
-19 -26 0
-19 -31 0
-19 -34 0
-26 -31 0
-26 -34 0
-31 -34 0
-2 -5 0
-2 -10 0
-2 -14 0
-2 -22 0
-2 -27 0
-2 -32 0
-2 -35 0
-5 -10 0
-5 -14 0
-5 -22 0
-5 -27 0
-5 -32 0
-5 -35 0
-10 -14 0
-10 -22 0
-10 -27 0
-10 -32 0
-10 -35 0
-14 -22 0
-14 -27 0
-14 -32 0
-14 -35 0
-22 -27 0
-22 -32 0
-22 -35 0
-27 -32 0
-27 -35 0
-32 -35 0
-6 -11 0
-6 -15 0
-6 -20 0
-6 -23 0
-6 -28 0
-6 -33 0
-6 -36 0
-6 -38 0
-11 -15 0
-11 -20 0
-11 -23 0
-11 -28 0
-11 -33 0
-11 -36 0
-11 -38 0
-15 -20 0
-15 -23 0
-15 -28 0
-15 -33 0
-15 -36 0
-15 -38 0
-20 -23 0
-20 -28 0
-20 -33 0
-20 -36 0
-20 -38 0
-23 -28 0
-23 -33 0
-23 -36 0
-23 -38 0
-28 -33 0
-28 -36 0
-28 -38 0
-33 -36 0
-33 -38 0
-36 -38 0
-16 -24 0
-16 -29 0
-16 -37 0
-16 -39 0
-24 -29 0
-24 -37 0
-24 -39 0
-29 -37 0
-29 -39 0
-37 -39 0
-3 -7 0
-3 -12 0
-3 -17 0
-3 -30 0
-7 -12 0
-7 -17 0
-7 -30 0
-12 -17 0
-12 -30 0
-17 -30 0
